objective value:                                 7678
t_X001E31                                           1 	(obj:-48)
t_X001J45                                           1 	(obj:-53)
t_X001L01                                           1 	(obj:165)
t_X002J34                                           1 	(obj:-53)
t_X002M21                                           1 	(obj:-56)
t_X002O01                                           1 	(obj:174)
t_X003J07                                           1 	(obj:-53)
t_X003N25                                           1 	(obj:-57)
t_X003Q01                                           1 	(obj:180)
t_X004D01                                           1 	(obj:-47)
t_X004H15                                           1 	(obj:-51)
t_X004L07                                           1 	(obj:165)
t_X005E07                                           1 	(obj:-48)
t_X005I25                                           1 	(obj:-52)
t_X005L01                                           1 	(obj:165)
t_X006F01                                           1 	(obj:-49)
t_X006H21                                           1 	(obj:-51)
t_X006K34                                           1 	(obj:162)
t_X007M01                                           1 	(obj:-56)
t_X007P20                                           1 	(obj:-59)
t_X007T31                                           1 	(obj:189)
t_X008I01                                           1 	(obj:-52)
t_X008M15                                           1 	(obj:-56)
t_X008R07                                           1 	(obj:183)
t_X009E27                                           1 	(obj:-48)
t_X009N20                                           1 	(obj:-57)
t_X009Q31                                           1 	(obj:180)
t_X010C31                                           1 	(obj:-46)
t_X010L33                                           1 	(obj:-55)
t_X010N27                                           1 	(obj:171)
t_X011L02                                           1 	(obj:-55)
t_X011N36                                           1 	(obj:-57)
t_X011O01                                           1 	(obj:174)
t_X012J01                                           1 	(obj:-53)
t_X012L03                                           1 	(obj:-55)
t_X012N02                                           1 	(obj:171)
t_X013N01                                           1 	(obj:-57)
t_X013Q14                                           1 	(obj:-60)
t_X013S04                                           1 	(obj:186)
t_X014T04                                           1 	(obj:-63)
t_X014V39                                           1 	(obj:-65)
t_X014Y01                                           1 	(obj:204)
t_X015G01                                           1 	(obj:-50)
t_X015I03                                           1 	(obj:-52)
t_X015K02                                           1 	(obj:162)
t_X016M02                                           1 	(obj:-56)
t_X016P36                                           1 	(obj:-59)
t_X016Q01                                           1 	(obj:180)
t_X017H01                                           1 	(obj:-51)
t_X017K21                                           1 	(obj:-54)
t_X017O34                                           1 	(obj:174)
t_X018R34                                           1 	(obj:-61)
t_X018W21                                           1 	(obj:-66)
t_X018Y01                                           1 	(obj:204)
t_X019E04                                           1 	(obj:-48)
t_X019G40                                           1 	(obj:-50)
t_X019I42                                           1 	(obj:156)
t_X020F42                                           1 	(obj:-98)
t_X020I04                                           1 	(obj:156)
t_X021K42                                           1 	(obj:-108)
t_X021N04                                           1 	(obj:171)
t_X022I01                                           1 	(obj:-52)
t_X022N24                                           1 	(obj:-57)
t_X022R19                                           1 	(obj:183)
t_X023D01                                           1 	(obj:-47)
t_X023I24                                           1 	(obj:-52)
t_X023M19                                           1 	(obj:168)
t_X024A01                                           1 	(obj:-44)
t_X024F17                                           1 	(obj:-49)
t_X024I11                                           1 	(obj:156)
t_X025C23                                           1 	(obj:-46)
t_X025G28                                           1 	(obj:-50)
t_X025L01                                           1 	(obj:165)
t_X026O01                                           1 	(obj:-58)
t_X026T12                                           1 	(obj:-63)
t_X026W23                                           1 	(obj:198)
t_X027A01                                           1 	(obj:-44)
t_X027F12                                           1 	(obj:-49)
t_X027I23                                           1 	(obj:156)
t_X028O11                                           1 	(obj:-58)
t_X028V30                                           1 	(obj:-65)
t_X028W01                                           1 	(obj:198)
t_X029I19                                           1 	(obj:-52)
t_X029P26                                           1 	(obj:-59)
t_X029R01                                           1 	(obj:183)
t_X030N01                                           1 	(obj:-57)
t_X030S17                                           1 	(obj:-62)
t_X030V11                                           1 	(obj:195)
t_X031B11                                           1 	(obj:-45)
t_X031I30                                           1 	(obj:-52)
t_X031J01                                           1 	(obj:159)
t_X032H11                                           1 	(obj:-51)
t_X032O30                                           1 	(obj:-58)
t_X032P01                                           1 	(obj:177)
t_X033B07                                           1 	(obj:-45)
t_X033F25                                           1 	(obj:-49)
t_X033I01                                           1 	(obj:156)
t_X034M01                                           1 	(obj:-56)
t_X034Q15                                           1 	(obj:-60)
t_X034U07                                           1 	(obj:192)
t_X035I06                                           1 	(obj:-52)
t_X035K28                                           1 	(obj:-54)
t_X035P01                                           1 	(obj:177)
t_X036M23                                           1 	(obj:-56)
t_X036Q28                                           1 	(obj:-60)
t_X036U01                                           1 	(obj:192)
t_X037N01                                           1 	(obj:-57)
t_X037S17                                           1 	(obj:-62)
t_X037V11                                           1 	(obj:195)
t_X038N01                                           1 	(obj:-57)
t_X038S35                                           1 	(obj:-62)
t_X038T06                                           1 	(obj:189)
t_X039D29                                           1 	(obj:-47)
t_X039G26                                           1 	(obj:-50)
t_X039I01                                           1 	(obj:156)
t_X040H01                                           1 	(obj:-51)
t_X040M24                                           1 	(obj:-56)
t_X040Q19                                           1 	(obj:180)
t_X041G11                                           1 	(obj:-50)
t_X041N30                                           1 	(obj:-57)
t_X041P01                                           1 	(obj:177)
t_X042Q31                                           1 	(obj:-60)
t_X042V45                                           1 	(obj:-65)
t_X042X01                                           1 	(obj:201)
t_X043K29                                           1 	(obj:-54)
t_X043N26                                           1 	(obj:-57)
t_X043P01                                           1 	(obj:177)
t_X044C19                                           1 	(obj:-46)
t_X044J26                                           1 	(obj:-53)
t_X044L01                                           1 	(obj:165)
t_X045N01                                           1 	(obj:-57)
t_X045S12                                           1 	(obj:-62)
t_X045V23                                           1 	(obj:195)
t_X046G23                                           1 	(obj:-50)
t_X046K28                                           1 	(obj:-54)
t_X046O01                                           1 	(obj:174)
t_X047G01                                           1 	(obj:-50)
t_X047J20                                           1 	(obj:-53)
t_X047N31                                           1 	(obj:171)
t_X048J19                                           1 	(obj:-53)
t_X048Q26                                           1 	(obj:-60)
t_X048S01                                           1 	(obj:186)
t_X049M34                                           1 	(obj:-56)
t_X049P21                                           1 	(obj:-59)
t_X049R01                                           1 	(obj:183)
t_X050D31                                           1 	(obj:-47)
t_X050I45                                           1 	(obj:-52)
t_X050K01                                           1 	(obj:162)
t_X051J31                                           1 	(obj:-53)
t_X051O45                                           1 	(obj:-58)
t_X051Q01                                           1 	(obj:180)
t_X052R29                                           1 	(obj:-61)
t_X052U26                                           1 	(obj:-64)
t_X052W01                                           1 	(obj:198)
t_X053G01                                           1 	(obj:-50)
t_X053K15                                           1 	(obj:-54)
t_X053P07                                           1 	(obj:177)
t_X054G01                                           1 	(obj:-50)
t_X054L35                                           1 	(obj:-55)
t_X054M06                                           1 	(obj:168)
t_X055G01                                           1 	(obj:-50)
t_X055L12                                           1 	(obj:-55)
t_X055O23                                           1 	(obj:174)
t_X056N01                                           1 	(obj:-57)
t_X056S12                                           1 	(obj:-62)
t_X056U32                                           1 	(obj:192)
t_X057P07                                           1 	(obj:-59)
t_X057T25                                           1 	(obj:-63)
t_X057W01                                           1 	(obj:198)
t_X058G01                                           1 	(obj:-50)
t_X058I26                                           1 	(obj:-52)
t_X058L29                                           1 	(obj:165)
t_X059O01                                           1 	(obj:-58)
t_X059T12                                           1 	(obj:-63)
t_X059U18                                           1 	(obj:192)
t_X060T01                                           1 	(obj:-63)
t_X060W20                                           1 	(obj:-66)
t_X060X31                                           1 	(obj:201)
t_X061H10                                           1 	(obj:-51)
t_X061M46                                           1 	(obj:-56)
t_X061O01                                           1 	(obj:174)
t_X062G01                                           1 	(obj:-50)
t_X062L09                                           1 	(obj:-55)
t_X062N10                                           1 	(obj:171)
t_X063N01                                           1 	(obj:-57)
t_X063S09                                           1 	(obj:-62)
t_X063U10                                           1 	(obj:192)
t_X064H32                                           1 	(obj:-51)
t_X064L28                                           1 	(obj:-55)
t_X064P01                                           1 	(obj:177)
t_X065F02                                           1 	(obj:-49)
t_X065H36                                           1 	(obj:-51)
t_X065I01                                           1 	(obj:156)
t_X066C06                                           1 	(obj:-46)
t_X066E28                                           1 	(obj:-48)
t_X066J01                                           1 	(obj:159)
t_X067U01                                           1 	(obj:-64)
t_X067W03                                           1 	(obj:-66)
t_X067Y02                                           1 	(obj:204)
t_X068N01                                           1 	(obj:-57)
t_X068P21                                           1 	(obj:-59)
t_X068S34                                           1 	(obj:186)
t_X069T02                                           1 	(obj:-63)
t_X069V36                           0.999999999999993 	(obj:-65)
t_X069W01                                           1 	(obj:198)
t_X070F04                                           1 	(obj:-49)
t_X070G39                                           1 	(obj:-50)
t_X070I01                                           1 	(obj:156)
t_X071M04                                           1 	(obj:-56)
t_X071N39                                           1 	(obj:-57)
t_X071P01                                           1 	(obj:177)
t_X072Q06                                           1 	(obj:-60)
t_X072S28                                           1 	(obj:-62)
t_X072X01                                           1 	(obj:201)
t_X073J07                                           1 	(obj:-53)
t_X073N25                                           1 	(obj:-57)
t_X073Q01                                           1 	(obj:180)
t_X074U01                                           1 	(obj:-64)
t_X074W14                                           1 	(obj:-66)
t_X074X04                                           1 	(obj:201)
t_X075M01                                           1 	(obj:-56)
t_X075O03                                           1 	(obj:-58)
t_X075Q02                                           1 	(obj:180)
t_X076G01                                           1 	(obj:-50)
t_X076I14                                           1 	(obj:-52)
t_X076J04                                           1 	(obj:159)
t_X077A01                                           1 	(obj:-44)
t_X077F17                                           1 	(obj:-49)
t_X077I11                                           1 	(obj:156)
t_X078I18                                           1 	(obj:-52)
t_X078K28                                           1 	(obj:-54)
t_X078O01                                           1 	(obj:174)
t_X079E34                                           1 	(obj:-48)
t_X079H21                                           1 	(obj:-51)
t_X079J01                                           1 	(obj:159)
t_X080S02                                           1 	(obj:-124)
t_X080V42                                           1 	(obj:195)
t_X081D42                                           1 	(obj:-47)
t_X081F16                                           1 	(obj:-49)
t_X081H02                                           1 	(obj:153)
t_X082L02                                           1 	(obj:-110)
t_X082O42                                           1 	(obj:174)
t_X083I42                                           1 	(obj:-52)
t_X083K16                                           1 	(obj:-54)
t_X083M02                                           1 	(obj:168)
t_X084B10                                           1 	(obj:-45)
t_X084G46                                           1 	(obj:-50)
t_X084I01                                           1 	(obj:156)
t_X085L01                                           1 	(obj:-55)
t_X085Q09                                           1 	(obj:-60)
t_X085S10                                           1 	(obj:186)
t_X086O10                                           1 	(obj:-58)
t_X086T46                                           1 	(obj:-63)
t_X086V01                                           1 	(obj:195)
t_X087E01                                           1 	(obj:-48)
t_X087J09                                           1 	(obj:-53)
t_X087L10                                           1 	(obj:165)
t_X088A01                                           1 	(obj:-44)
t_X088F35                                           1 	(obj:-49)
t_X088G06                                           1 	(obj:150)
t_X089C06                                           1 	(obj:-46)
t_X089E28                                           1 	(obj:-48)
t_X089J01                                           1 	(obj:159)
t_X090M01                                           1 	(obj:-56)
t_X090R35                                           1 	(obj:-61)
t_X090S06                                           1 	(obj:186)
t_X091J06                                           1 	(obj:-53)
t_X091L28                                           1 	(obj:-55)
t_X091Q01                                           1 	(obj:180)
t_X092C42                                           1 	(obj:-46)
t_X092D16                                           1 	(obj:-47)
t_X092F02                                           1 	(obj:147)
t_X093I31                                           1 	(obj:-52)
t_X093S33                                           1 	(obj:-62)
t_X093U27                                           1 	(obj:192)
t_X094B27                                           1 	(obj:-45)
t_X094K20                                           1 	(obj:-54)
t_X094N31                                           1 	(obj:171)
t_X095K31                                           1 	(obj:-54)
t_X095P45                                           1 	(obj:-59)
t_X095R01                                           1 	(obj:183)
t_X096E01                                           1 	(obj:-48)
t_X096I20                                           1 	(obj:-52)
t_X096L31                                           1 	(obj:165)
t_X097I18                                           1 	(obj:-52)
t_X097K28                                           1 	(obj:-54)
t_X097O01                                           1 	(obj:174)
t_X098C31                                           1 	(obj:-46)
t_X098H45                                           1 	(obj:-51)
t_X098J01                                           1 	(obj:159)
t_X099R18                                           1 	(obj:-61)
t_X099T28                                           1 	(obj:-63)
t_X099X01                                           1 	(obj:201)
t_X100D01                                           1 	(obj:-47)
t_X100I12                                           1 	(obj:-52)
t_X100J18                                           1 	(obj:159)
t_X101O01                                           1 	(obj:-58)
t_X101T12                                           1 	(obj:-63)
t_X101U18                                           1 	(obj:192)
t_X102P01                                           1 	(obj:-59)
t_X102U12                                           1 	(obj:-64)
t_X102W32                                           1 	(obj:198)
t_X103O01                                           1 	(obj:-58)
t_X103S15                                           1 	(obj:-62)
t_X103W07                                           1 	(obj:198)
t_X104K01                                           1 	(obj:-54)
t_X104M14                                           1 	(obj:-56)
t_X104O04                                           1 	(obj:174)
t_X105P01                                           1 	(obj:-59)
t_X105R14                                           1 	(obj:-61)
t_X105T04                                           1 	(obj:189)
t_X106B01                                           1 	(obj:-45)
t_X106F12                                           1 	(obj:-49)
t_X106I32                                           1 	(obj:156)
t_X107L32                                           1 	(obj:-55)
t_X107O28                                           1 	(obj:-58)
t_X107T01                                           1 	(obj:189)
t_X108H04                                           1 	(obj:-51)
t_X108I39                                           1 	(obj:-52)
t_X108K01                                           1 	(obj:162)
t_X109N04                                           1 	(obj:-57)
t_X109O39                                           1 	(obj:-58)
t_X109Q01                                           1 	(obj:180)
t_X110R01                                           1 	(obj:-61)
t_X110W12                                           1 	(obj:-66)
t_X110Y32                                           1 	(obj:204)
t_X111A42                                           1 	(obj:-88)
t_X111D04                                           1 	(obj:141)
t_X112R42                                           1 	(obj:-122)
t_X112U04                                           1 	(obj:192)
t_X113L04                                           1 	(obj:-55)
t_X113M40                                           1 	(obj:-56)
t_X113O42                                           1 	(obj:174)
t_X094E05                                           1 	(obj:0)
t_X009H05                                           1 	(obj:0)
t_X010D08                                           1 	(obj:0)
t_X098E08                                           1 	(obj:0)
t_X050F08                                           1 	(obj:0)
t_X001G08                                           1 	(obj:0)
t_X093K08                                           1 	(obj:0)
t_X051L08                                           1 	(obj:0)
t_X095M08                                           1 	(obj:0)
t_X042S08                                           1 	(obj:0)
t_X087I13                                           1 	(obj:0)
t_X062K13                                           1 	(obj:0)
t_X085P13                                           1 	(obj:0)
t_X063R13                                           1 	(obj:0)
t_X044E22                                           1 	(obj:0)
t_X029K22                                           1 	(obj:0)
t_X048L22                                           1 	(obj:0)
t_X023G25                                           1 	(obj:0)
t_X040K25                                           1 	(obj:0)
t_X022L25                                           1 	(obj:0)
t_X084D37                                           1 	(obj:0)
t_X061J37                                           1 	(obj:0)
t_X086Q37                                           1 	(obj:0)
t_X044H38                                           1 	(obj:0)
t_X029N38                                           1 	(obj:0)
t_X048O38                                           1 	(obj:0)
t_X027C39                                           1 	(obj:0)
t_X088C39                                           1 	(obj:0)
t_X106C39                                           1 	(obj:0)
t_X100F39                                           1 	(obj:0)
t_X054I39                                           1 	(obj:0)
t_X055I39                                           1 	(obj:0)
t_X090O39                                           1 	(obj:0)
t_X038P39                                           1 	(obj:0)
t_X045P39                                           1 	(obj:0)
t_X056P39                                           1 	(obj:0)
t_X026Q39                                           1 	(obj:0)
t_X059Q39                                           1 	(obj:0)
t_X101Q39                                           1 	(obj:0)
t_X102R39                                           1 	(obj:0)
t_X110T39                                           1 	(obj:0)
t_X010J41                                           1 	(obj:0)
t_X093Q41                                           1 	(obj:0)
t_X004F43                                           1 	(obj:0)
t_X053I43                                           1 	(obj:0)
t_X008K43                                           1 	(obj:0)
t_X034O43                                           1 	(obj:0)
t_X103Q43                                           1 	(obj:0)
t_X094H44                                           1 	(obj:0)
t_X009K44                                           1 	(obj:0)
